c tentativa de ficheiro gr
p sp 8 11
a 0 1 1
a 1 0 1
a 1 2 3
a 1 7 2
a 2 6 7
a 2 3 3
a 2 4 5
a 4 5 2
a 4 3 7
a 5 6 9
a 6 3 8
a 6 7 4
a 2 1 3
a 7 1 2
a 6 2 7
a 3 2 3
a 4 2 5
a 5 4 2
a 3 4 7
a 6 5 9
a 3 6 8
a 7 6 4
